PROBLEM NAME: eil51_n17
KNAPSACK DATA TYPE: uncorrelated
DIMENSION: 17
NUMBER OF ITEMS: 16
CAPACITY OF KNAPSACK: 955
MIN SPEED: 0.1
MAX SPEED: 1
RENTING RATIO: 4.03
EDGE_WEIGHT_TYPE: CEIL_2D
NODE_COORD_SECTION	(INDEX, X, Y):
1	52	64
2	40	30
3	17	63
4	17	33
5	13	13
6	42	57
7	8	52
8	43	67
9	58	27
10	38	46
11	46	10
12	32	22
13	59	15
14	5	64
15	39	10
16	32	39
17	48	28
ITEMS SECTION	(INDEX, PROFIT, WEIGHT, ASSIGNED NODE NUMBER):
1	992	421	8
2	815	845	3
3	791	9	14
4	667	122	7
5	649	322	4
6	598	94	5
7	544	574	12
8	506	326	15
9	457	43	11
10	446	955	13
11	422	252	9
12	416	248	17
13	359	901	2
14	237	795	16
15	94	485	10
16	7	738	6
